(declare-fun temp10598_1 () (_ BitVec 64))
(declare-fun var77203 () (_ BitVec 64))
(declare-fun var210653 () (_ BitVec 64))
(declare-fun var210913 () (_ BitVec 64))
(declare-fun temp10598_2 () (_ BitVec 64))
(declare-fun var210940 () (_ BitVec 64))
(declare-fun ARGNAME_weight_NAMEEND_DIM () (_ BitVec 64))
(declare-fun temp10598_3 () (_ BitVec 64))
(declare-fun temp10598_4 () (_ BitVec 64))
(declare-fun var210941 () (_ BitVec 64))
(declare-fun k!0 () Bool)
(declare-fun temp10598_5 () (_ BitVec 64))
(declare-fun ARGNAME_groups_NAMEEND () (_ BitVec 64))
(declare-fun var210986 () (_ BitVec 64))
(declare-fun temp10598_6 () (_ BitVec 64))
(declare-fun ARGNAME_stride_NAMEEND_LEN () (_ BitVec 64))
(declare-fun ARGNAME_padding_NAMEEND_LEN () (_ BitVec 64))
(declare-fun ARGNAME_dilation_NAMEEND_LEN () (_ BitVec 64))
(declare-fun ARGNAME_output_padding_NAMEEND_LEN () (_ BitVec 64))
(declare-fun temp10598_7 () (_ BitVec 64))
(declare-fun temp10598_8 () (_ BitVec 64))
(declare-fun ARGNAME_padding_NAMEEND_VAL () (Array (_ BitVec 64) (_ BitVec 64)))
(declare-fun temp10598_9 () (_ BitVec 64))
(declare-fun temp10598_10 () (_ BitVec 64))
(declare-fun temp10598_11 () (_ BitVec 64))
(declare-fun temp10598_12 () (_ BitVec 64))
(declare-fun temp10598_13 () (_ BitVec 64))
(declare-fun temp10598_14 () (_ BitVec 64))
(declare-fun temp10598_15 () (_ BitVec 64))
(declare-fun temp10598_16 () (_ BitVec 64))
(declare-fun temp10598_17 () (_ BitVec 64))
(declare-fun temp10598_18 () (_ BitVec 64))
(declare-fun temp10598_19 () (_ BitVec 64))
(declare-fun temp10598_20 () (_ BitVec 64))
(declare-fun temp10598_21 () (_ BitVec 64))
(declare-fun temp10598_22 () (_ BitVec 64))
(declare-fun temp10598_23 () (_ BitVec 64))
(declare-fun temp10598_24 () (_ BitVec 64))
(declare-fun temp10598_25 () (_ BitVec 64))
(declare-fun temp10598_26 () (_ BitVec 64))
(declare-fun temp10598_27 () (_ BitVec 64))
(declare-fun temp10598_28 () (_ BitVec 64))
(declare-fun temp10598_29 () (_ BitVec 64))
(declare-fun temp10598_30 () (_ BitVec 64))
(declare-fun temp10598_31 () (_ BitVec 64))
(declare-fun temp10598_32 () (_ BitVec 64))
(declare-fun temp10598_33 () (_ BitVec 64))
(declare-fun temp10598_34 () (_ BitVec 64))
(declare-fun temp10598_35 () (_ BitVec 64))
(declare-fun temp10598_36 () (_ BitVec 64))
(declare-fun temp10598_37 () (_ BitVec 64))
(declare-fun temp10598_38 () (_ BitVec 64))
(declare-fun temp10598_39 () (_ BitVec 64))
(declare-fun temp10598_40 () (_ BitVec 64))
(declare-fun temp10598_41 () (_ BitVec 64))
(declare-fun temp10598_42 () (_ BitVec 64))
(declare-fun temp10598_43 () (_ BitVec 64))
(declare-fun temp10598_44 () (_ BitVec 64))
(declare-fun temp10598_45 () (_ BitVec 64))
(declare-fun temp10598_46 () (_ BitVec 64))
(declare-fun temp10598_47 () (_ BitVec 64))
(declare-fun temp10598_48 () (_ BitVec 64))
(declare-fun var1191714 () (_ BitVec 64))
(declare-fun temp10598_49 () (_ BitVec 64))
(declare-fun temp10598_50 () (_ BitVec 64))
(declare-fun temp10598_51 () (_ BitVec 64))
(declare-fun ARGNAME_output_padding_NAMEEND_VAL
             ()
             (Array (_ BitVec 64) (_ BitVec 64)))
(declare-fun temp10598_52 () (_ BitVec 64))
(declare-fun temp10598_53 () (_ BitVec 64))
(declare-fun temp10598_54 () (_ BitVec 64))
(declare-fun temp10598_55 () (_ BitVec 64))
(declare-fun temp10598_56 () (_ BitVec 64))
(declare-fun temp10598_57 () (_ BitVec 64))
(declare-fun temp10598_58 () (_ BitVec 64))
(declare-fun temp10598_59 () (_ BitVec 64))
(declare-fun temp10598_60 () (_ BitVec 64))
(declare-fun temp10598_61 () (_ BitVec 64))
(declare-fun temp10598_62 () (_ BitVec 64))
(declare-fun temp10598_63 () (_ BitVec 64))
(declare-fun temp10598_64 () (_ BitVec 64))
(declare-fun temp10598_65 () (_ BitVec 64))
(declare-fun temp10598_66 () (_ BitVec 64))
(declare-fun temp10598_67 () (_ BitVec 64))
(declare-fun temp10598_68 () (_ BitVec 64))
(declare-fun temp10598_69 () (_ BitVec 64))
(declare-fun temp10598_70 () (_ BitVec 64))
(declare-fun temp10598_71 () (_ BitVec 64))
(declare-fun temp10598_72 () (_ BitVec 64))
(declare-fun temp10598_73 () (_ BitVec 64))
(declare-fun temp10598_74 () (_ BitVec 64))
(declare-fun temp10598_75 () (_ BitVec 64))
(declare-fun temp10598_76 () (_ BitVec 64))
(declare-fun temp10598_77 () (_ BitVec 64))
(declare-fun temp10598_78 () (_ BitVec 64))
(declare-fun temp10598_79 () (_ BitVec 64))
(declare-fun temp10598_80 () (_ BitVec 64))
(declare-fun temp10598_81 () (_ BitVec 64))
(declare-fun temp10598_82 () (_ BitVec 64))
(declare-fun temp10598_83 () (_ BitVec 64))
(declare-fun temp10598_84 () (_ BitVec 64))
(declare-fun temp10598_85 () (_ BitVec 64))
(declare-fun temp10598_86 () (_ BitVec 64))
(declare-fun temp10598_87 () (_ BitVec 64))
(declare-fun temp10598_88 () (_ BitVec 64))
(declare-fun temp10598_89 () (_ BitVec 64))
(declare-fun temp10598_90 () (_ BitVec 64))
(declare-fun temp10598_91 () (_ BitVec 64))
(declare-fun var1191725 () (_ BitVec 64))
(declare-fun temp10598_92 () (_ BitVec 64))
(declare-fun temp10598_93 () (_ BitVec 64))
(declare-fun temp10598_94 () (_ BitVec 64))
(declare-fun ARGNAME_stride_NAMEEND_VAL () (Array (_ BitVec 64) (_ BitVec 64)))
(declare-fun temp10598_95 () (_ BitVec 64))
(declare-fun temp10598_96 () (_ BitVec 64))
(declare-fun temp10598_97 () (_ BitVec 64))
(declare-fun temp10598_98 () (_ BitVec 64))
(declare-fun temp10598_99 () (_ BitVec 64))
(declare-fun temp10598_100 () (_ BitVec 64))
(declare-fun temp10598_101 () (_ BitVec 64))
(declare-fun temp10598_102 () (_ BitVec 64))
(declare-fun temp10598_103 () (_ BitVec 64))
(declare-fun temp10598_104 () (_ BitVec 64))
(declare-fun temp10598_105 () (_ BitVec 64))
(declare-fun temp10598_106 () (_ BitVec 64))
(declare-fun temp10598_107 () (_ BitVec 64))
(declare-fun temp10598_108 () (_ BitVec 64))
(declare-fun temp10598_109 () (_ BitVec 64))
(declare-fun temp10598_110 () (_ BitVec 64))
(declare-fun temp10598_111 () (_ BitVec 64))
(declare-fun temp10598_112 () (_ BitVec 64))
(declare-fun temp10598_113 () (_ BitVec 64))
(declare-fun temp10598_114 () (_ BitVec 64))
(declare-fun temp10598_115 () (_ BitVec 64))
(declare-fun temp10598_116 () (_ BitVec 64))
(declare-fun temp10598_117 () (_ BitVec 64))
(declare-fun temp10598_118 () (_ BitVec 64))
(declare-fun temp10598_119 () (_ BitVec 64))
(declare-fun temp10598_120 () (_ BitVec 64))
(declare-fun temp10598_121 () (_ BitVec 64))
(declare-fun temp10598_122 () (_ BitVec 64))
(declare-fun temp10598_123 () (_ BitVec 64))
(declare-fun temp10598_124 () (_ BitVec 64))
(declare-fun temp10598_125 () (_ BitVec 64))
(declare-fun temp10598_126 () (_ BitVec 64))
(declare-fun temp10598_127 () (_ BitVec 64))
(declare-fun temp10598_128 () (_ BitVec 64))
(declare-fun temp10598_129 () (_ BitVec 64))
(declare-fun temp10598_130 () (_ BitVec 64))
(declare-fun temp10598_131 () (_ BitVec 64))
(declare-fun temp10598_132 () (_ BitVec 64))
(declare-fun temp10598_133 () (_ BitVec 64))
(declare-fun temp10598_134 () (_ BitVec 64))
(declare-fun var1191735 () (_ BitVec 64))
(declare-fun temp10598_135 () (_ BitVec 64))
(declare-fun ARGNAME_input_NAMEEND_DIM () (_ BitVec 64))
(declare-fun var1191747 () (_ BitVec 64))
(declare-fun temp10598_136 () (_ BitVec 64))
(declare-fun temp10598_137 () (_ BitVec 64))
(declare-fun var1179826 () (_ BitVec 64))
(declare-fun temp10598_138 () (_ BitVec 64))
(declare-fun temp10598_139 () (_ BitVec 64))
(declare-fun ARGNAME_weight_NAMEEND_DIMSIZE
             ()
             (Array (_ BitVec 64) (_ BitVec 64)))
(declare-fun temp10598_140 () (_ BitVec 64))
(declare-fun temp10598_141 () (_ BitVec 64))
(declare-fun temp10598_142 () (_ BitVec 64))
(declare-fun temp10598_143 () (_ BitVec 64))
(declare-fun temp10598_144 () (_ BitVec 64))
(declare-fun temp10598_145 () (_ BitVec 64))
(declare-fun temp10598_146 () (_ BitVec 64))
(declare-fun temp10598_147 () (_ BitVec 64))
(declare-fun temp10598_148 () (_ BitVec 64))
(declare-fun temp10598_149 () (_ BitVec 64))
(declare-fun temp10598_150 () (_ BitVec 64))
(declare-fun temp10598_151 () (_ BitVec 64))
(declare-fun temp10598_152 () (_ BitVec 64))
(declare-fun temp10598_153 () (_ BitVec 64))
(declare-fun temp10598_154 () (_ BitVec 64))
(declare-fun temp10598_155 () (_ BitVec 64))
(declare-fun temp10598_157 () (_ BitVec 64))
(declare-fun temp10598_158 () (_ BitVec 64))
(declare-fun temp10598_156 () (_ BitVec 64))
(declare-fun var1191780 () (_ BitVec 64))
(declare-fun temp10598_159 () (_ BitVec 64))
(declare-fun temp10598_160 () (_ BitVec 64))
(declare-fun temp10598_162 () (_ BitVec 64))
(declare-fun temp10598_163 () (_ BitVec 64))
(declare-fun temp10598_161 () (_ BitVec 64))
(declare-fun var1191802 () (_ BitVec 64))
(declare-fun temp10598_164 () (_ BitVec 64))
(declare-fun var1191803 () (_ BitVec 64))
(declare-fun temp10598_165 () (_ BitVec 64))
(declare-fun temp10598_166 () (_ BitVec 64))
(declare-fun ARGNAME_transposed_NAMEEND () (_ BitVec 64))
(declare-fun var1191823 () (_ BitVec 64))
(declare-fun temp10598_167 () (_ BitVec 64))
(declare-fun temp10598_168 () (_ BitVec 64))
(declare-fun var1180714 () (_ BitVec 64))
(declare-fun temp10598_169 () (_ BitVec 64))
(declare-fun temp10598_170 () (_ BitVec 64))
(declare-fun ARGNAME_input_NAMEEND_DIMSIZE
             ()
             (Array (_ BitVec 64) (_ BitVec 64)))
(declare-fun temp10598_171 () (_ BitVec 64))
(declare-fun temp10598_172 () (_ BitVec 64))
(declare-fun temp10598_173 () (_ BitVec 64))
(declare-fun temp10598_174 () (_ BitVec 64))
(declare-fun temp10598_175 () (_ BitVec 64))
(declare-fun temp10598_176 () (_ BitVec 64))
(declare-fun temp10598_177 () (_ BitVec 64))
(declare-fun temp10598_178 () (_ BitVec 64))
(declare-fun temp10598_179 () (_ BitVec 64))
(declare-fun temp10598_180 () (_ BitVec 64))
(declare-fun temp10598_181 () (_ BitVec 64))
(declare-fun temp10598_182 () (_ BitVec 64))
(declare-fun temp10598_183 () (_ BitVec 64))
(declare-fun temp10598_184 () (_ BitVec 64))
(declare-fun temp10598_185 () (_ BitVec 64))
(declare-fun temp10598_186 () (_ BitVec 64))
(declare-fun temp10598_187 () (_ BitVec 64))
(declare-fun temp10598_188 () (_ BitVec 64))
(declare-fun temp10598_189 () (_ BitVec 64))
(declare-fun var1191831 () (_ BitVec 64))
(declare-fun temp10598_190 () (_ BitVec 64))
(declare-fun temp10598_192 () (_ BitVec 64))
(declare-fun temp10598_193 () (_ BitVec 64))
(declare-fun temp10598_191 () (_ BitVec 64))
(declare-fun var1191835 () (_ BitVec 64))
(declare-fun var1191836 () (_ BitVec 64))
(declare-fun temp10598_194 () (_ BitVec 64))
(declare-fun temp10598_195 () (_ BitVec 64))
(declare-fun temp10598_197 () (_ BitVec 64))
(declare-fun temp10598_198 () (_ BitVec 64))
(declare-fun temp10598_196 () (_ BitVec 64))
(declare-fun temp10598_199 () (_ BitVec 64))
(declare-fun var1586025 () (_ BitVec 64))
(declare-fun var1586034 () (_ BitVec 64))
(declare-fun var1717312 () (_ BitVec 64))
(declare-fun temp10598_200 () (_ BitVec 64))
(declare-fun var1191993 () (_ BitVec 64))
(declare-fun temp10598_201 () (_ BitVec 64))
(declare-fun var2700303 () (_ BitVec 64))
(declare-fun temp10598_202 () (_ BitVec 64))
(declare-fun var2962447 () (_ BitVec 64))
(declare-fun temp10598_203 () (_ BitVec 64))
(declare-fun var211058 () (_ BitVec 64))
(declare-fun temp10598_204 () (_ BitVec 64))
(declare-fun temp10598_205 () (_ BitVec 64))
(declare-fun var211188 () (_ BitVec 64))
(declare-fun var3879401 () (_ BitVec 64))
(declare-fun temp10598_206 () (_ BitVec 64))
(declare-fun var3866802 () (_ BitVec 64))
(declare-fun temp10598_207 () (_ BitVec 64))
(declare-fun temp10598_208 () (_ BitVec 64))
(declare-fun temp10598_209 () (_ BitVec 64))
(declare-fun var3879420 () (_ BitVec 64))
(declare-fun temp10598_210 () (_ BitVec 64))
(declare-fun var3879421 () (_ BitVec 64))
(declare-fun temp10598_211 () (_ BitVec 64))
(declare-fun temp10598_212 () (_ BitVec 64))
(declare-fun var3867690 () (_ BitVec 64))
(declare-fun temp10598_213 () (_ BitVec 64))
(declare-fun temp10598_214 () (_ BitVec 64))
(declare-fun temp10598_215 () (_ BitVec 64))
(declare-fun var3879423 () (_ BitVec 64))
(declare-fun temp10598_216 () (_ BitVec 64))
(declare-fun var3879424 () (_ BitVec 64))
(declare-fun temp10598_217 () (_ BitVec 64))
(declare-fun temp10598_218 () (_ BitVec 64))
(declare-fun var4133117 () (_ BitVec 64))
(declare-fun var4133062 () (_ BitVec 64))
(declare-fun var4079396 () (_ BitVec 64))
(declare-fun var4079423 () (_ BitVec 64))
(declare-fun var4079425 () (_ BitVec 64))
(declare-fun var4079382 () (_ BitVec 64))
(declare-fun var211201 () (_ BitVec 64))
(declare-fun temp10598_219 () (_ BitVec 64))
(declare-fun var4339331 () (_ BitVec 64))
(declare-fun var4339333 () (_ BitVec 64))
(declare-fun var4404876 () (_ BitVec 64))
(declare-fun var4404877 () (_ BitVec 64))
(declare-fun var4404890 () (_ BitVec 64))
(declare-fun var4404892 () (_ BitVec 64))
(declare-fun temp10598_220 () (_ BitVec 64))
(declare-fun var4404917 () (_ BitVec 64))
(declare-fun var4404919 () (_ BitVec 64))
(declare-fun var4525907 () (_ BitVec 64))
(declare-fun var4927888 () (_ BitVec 64))
(declare-fun var211494 () (_ BitVec 64))
(declare-fun temp10598_221 () (_ BitVec 64))
(declare-fun var211495 () (_ BitVec 64))
(declare-fun temp10598_223 () (_ BitVec 64))
(declare-fun temp10598_222 () (_ BitVec 64))
(declare-fun temp10598_224 () (_ BitVec 64))
(declare-fun var6884842 () (_ BitVec 64))
(declare-fun temp10598_226 () (_ BitVec 64))
(declare-fun temp10598_225 () (_ BitVec 64))
(declare-fun temp10598_227 () (_ BitVec 64))
(assert (= temp10598_1 #x0000000000000001))
(assert (= var77203 temp10598_1))
(assert (= var210653 var77203))
(assert (= var210913 var210653))
(assert (= temp10598_2 #xfffffffffffffffe))
(assert (= var210940 (bvadd ARGNAME_weight_NAMEEND_DIM temp10598_2)))
(assert (= temp10598_3 #x0000000000000003))
(assert (= var210941
   (ite (bvslt ARGNAME_weight_NAMEEND_DIM temp10598_3)
        #x0000000000000001
        #x0000000000000000)))
(assert (= temp10598_4 #x0000000000000000))
(assert (= var210941 temp10598_4))
(assert (= temp10598_5 #x0000000000000001))
(assert (= var210986
   (ite (bvslt ARGNAME_groups_NAMEEND temp10598_5)
        #x0000000000000001
        #x0000000000000000)))
(assert (= temp10598_6 #x0000000000000000))
(assert (= var210986 temp10598_6))
(assert (= ARGNAME_stride_NAMEEND_LEN var210940))
(assert (= ARGNAME_padding_NAMEEND_LEN var210940))
(assert (= ARGNAME_dilation_NAMEEND_LEN var210940))
(assert (= ARGNAME_output_padding_NAMEEND_LEN var210940))
(assert (= temp10598_7 #x0000000000000000))
(assert (= temp10598_8 temp10598_7))
(assert (= temp10598_9 (select ARGNAME_padding_NAMEEND_VAL temp10598_8)))
(assert (= temp10598_10 #x0000000000000001))
(assert (= temp10598_11 temp10598_10))
(assert (= temp10598_12 (select ARGNAME_padding_NAMEEND_VAL temp10598_11)))
(assert (= temp10598_13 #x0000000000000002))
(assert (= temp10598_14 temp10598_13))
(assert (= temp10598_15 (select ARGNAME_padding_NAMEEND_VAL temp10598_14)))
(assert (= temp10598_16 #x0000000000000003))
(assert (= temp10598_17 temp10598_16))
(assert (= temp10598_18 (select ARGNAME_padding_NAMEEND_VAL temp10598_17)))
(assert (= temp10598_19 #x0000000000000004))
(assert (= temp10598_20 temp10598_19))
(assert (= temp10598_21 (select ARGNAME_padding_NAMEEND_VAL temp10598_20)))
(assert (= temp10598_22 #x0000000000000005))
(assert (= temp10598_23 temp10598_22))
(assert (= temp10598_24 (select ARGNAME_padding_NAMEEND_VAL temp10598_23)))
(assert (= temp10598_25 #x0000000000000000))
(assert (= temp10598_26 #x0000000000000000))
(assert (= temp10598_27 temp10598_26))
(assert (= temp10598_28 (select ARGNAME_padding_NAMEEND_VAL temp10598_27)))
(assert (= temp10598_29 #x0000000000000000))
(assert (= temp10598_30 #x0000000000000001))
(assert (= temp10598_31 temp10598_30))
(assert (= temp10598_32 (select ARGNAME_padding_NAMEEND_VAL temp10598_31)))
(assert (= temp10598_33 #x0000000000000000))
(assert (= temp10598_34 #x0000000000000002))
(assert (= temp10598_35 temp10598_34))
(assert (= temp10598_36 (select ARGNAME_padding_NAMEEND_VAL temp10598_35)))
(assert (= temp10598_37 #x0000000000000000))
(assert (= temp10598_38 #x0000000000000003))
(assert (= temp10598_39 temp10598_38))
(assert (= temp10598_40 (select ARGNAME_padding_NAMEEND_VAL temp10598_39)))
(assert (= temp10598_41 #x0000000000000000))
(assert (= temp10598_42 #x0000000000000004))
(assert (= temp10598_43 temp10598_42))
(assert (= temp10598_44 (select ARGNAME_padding_NAMEEND_VAL temp10598_43)))
(assert (= temp10598_45 #x0000000000000000))
(assert (= temp10598_46 #x0000000000000005))
(assert (= temp10598_47 temp10598_46))
(assert (= temp10598_48 (select ARGNAME_padding_NAMEEND_VAL temp10598_47)))
(assert (= var1191714
   (ite (and true
             (bvslt temp10598_28 temp10598_25)
             (bvslt temp10598_32 temp10598_29)
             (bvslt temp10598_36 temp10598_33)
             (bvslt temp10598_40 temp10598_37)
             (bvslt temp10598_44 temp10598_41)
             (bvslt temp10598_48 temp10598_45))
        #x0000000000000001
        #x0000000000000000)))
(assert (= temp10598_49 #x0000000000000000))
(assert (= var1191714 temp10598_49))
(assert (= temp10598_50 #x0000000000000000))
(assert (= temp10598_51 temp10598_50))
(assert (= temp10598_52 (select ARGNAME_output_padding_NAMEEND_VAL temp10598_51)))
(assert (= temp10598_53 #x0000000000000001))
(assert (= temp10598_54 temp10598_53))
(assert (= temp10598_55 (select ARGNAME_output_padding_NAMEEND_VAL temp10598_54)))
(assert (= temp10598_56 #x0000000000000002))
(assert (= temp10598_57 temp10598_56))
(assert (= temp10598_58 (select ARGNAME_output_padding_NAMEEND_VAL temp10598_57)))
(assert (= temp10598_59 #x0000000000000003))
(assert (= temp10598_60 temp10598_59))
(assert (= temp10598_61 (select ARGNAME_output_padding_NAMEEND_VAL temp10598_60)))
(assert (= temp10598_62 #x0000000000000004))
(assert (= temp10598_63 temp10598_62))
(assert (= temp10598_64 (select ARGNAME_output_padding_NAMEEND_VAL temp10598_63)))
(assert (= temp10598_65 #x0000000000000005))
(assert (= temp10598_66 temp10598_65))
(assert (= temp10598_67 (select ARGNAME_output_padding_NAMEEND_VAL temp10598_66)))
(assert (= temp10598_68 #x0000000000000000))
(assert (= temp10598_69 #x0000000000000000))
(assert (= temp10598_70 temp10598_69))
(assert (= temp10598_71 (select ARGNAME_output_padding_NAMEEND_VAL temp10598_70)))
(assert (= temp10598_72 #x0000000000000000))
(assert (= temp10598_73 #x0000000000000001))
(assert (= temp10598_74 temp10598_73))
(assert (= temp10598_75 (select ARGNAME_output_padding_NAMEEND_VAL temp10598_74)))
(assert (= temp10598_76 #x0000000000000000))
(assert (= temp10598_77 #x0000000000000002))
(assert (= temp10598_78 temp10598_77))
(assert (= temp10598_79 (select ARGNAME_output_padding_NAMEEND_VAL temp10598_78)))
(assert (= temp10598_80 #x0000000000000000))
(assert (= temp10598_81 #x0000000000000003))
(assert (= temp10598_82 temp10598_81))
(assert (= temp10598_83 (select ARGNAME_output_padding_NAMEEND_VAL temp10598_82)))
(assert (= temp10598_84 #x0000000000000000))
(assert (= temp10598_85 #x0000000000000004))
(assert (= temp10598_86 temp10598_85))
(assert (= temp10598_87 (select ARGNAME_output_padding_NAMEEND_VAL temp10598_86)))
(assert (= temp10598_88 #x0000000000000000))
(assert (= temp10598_89 #x0000000000000005))
(assert (= temp10598_90 temp10598_89))
(assert (= temp10598_91 (select ARGNAME_output_padding_NAMEEND_VAL temp10598_90)))
(assert (= var1191725
   (ite (and true
             (bvslt temp10598_71 temp10598_68)
             (bvslt temp10598_75 temp10598_72)
             (bvslt temp10598_79 temp10598_76)
             (bvslt temp10598_83 temp10598_80)
             (bvslt temp10598_87 temp10598_84)
             (bvslt temp10598_91 temp10598_88))
        #x0000000000000001
        #x0000000000000000)))
(assert (= temp10598_92 #x0000000000000000))
(assert (= var1191725 temp10598_92))
(assert (= temp10598_93 #x0000000000000000))
(assert (= temp10598_94 temp10598_93))
(assert (= temp10598_95 (select ARGNAME_stride_NAMEEND_VAL temp10598_94)))
(assert (= temp10598_96 #x0000000000000001))
(assert (= temp10598_97 temp10598_96))
(assert (= temp10598_98 (select ARGNAME_stride_NAMEEND_VAL temp10598_97)))
(assert (= temp10598_99 #x0000000000000002))
(assert (= temp10598_100 temp10598_99))
(assert (= temp10598_101 (select ARGNAME_stride_NAMEEND_VAL temp10598_100)))
(assert (= temp10598_102 #x0000000000000003))
(assert (= temp10598_103 temp10598_102))
(assert (= temp10598_104 (select ARGNAME_stride_NAMEEND_VAL temp10598_103)))
(assert (= temp10598_105 #x0000000000000004))
(assert (= temp10598_106 temp10598_105))
(assert (= temp10598_107 (select ARGNAME_stride_NAMEEND_VAL temp10598_106)))
(assert (= temp10598_108 #x0000000000000005))
(assert (= temp10598_109 temp10598_108))
(assert (= temp10598_110 (select ARGNAME_stride_NAMEEND_VAL temp10598_109)))
(assert (= temp10598_111 #x0000000000000000))
(assert (= temp10598_112 #x0000000000000000))
(assert (= temp10598_113 temp10598_112))
(assert (= temp10598_114 (select ARGNAME_stride_NAMEEND_VAL temp10598_113)))
(assert (= temp10598_115 #x0000000000000000))
(assert (= temp10598_116 #x0000000000000001))
(assert (= temp10598_117 temp10598_116))
(assert (= temp10598_118 (select ARGNAME_stride_NAMEEND_VAL temp10598_117)))
(assert (= temp10598_119 #x0000000000000000))
(assert (= temp10598_120 #x0000000000000002))
(assert (= temp10598_121 temp10598_120))
(assert (= temp10598_122 (select ARGNAME_stride_NAMEEND_VAL temp10598_121)))
(assert (= temp10598_123 #x0000000000000000))
(assert (= temp10598_124 #x0000000000000003))
(assert (= temp10598_125 temp10598_124))
(assert (= temp10598_126 (select ARGNAME_stride_NAMEEND_VAL temp10598_125)))
(assert (= temp10598_127 #x0000000000000000))
(assert (= temp10598_128 #x0000000000000004))
(assert (= temp10598_129 temp10598_128))
(assert (= temp10598_130 (select ARGNAME_stride_NAMEEND_VAL temp10598_129)))
(assert (= temp10598_131 #x0000000000000000))
(assert (= temp10598_132 #x0000000000000005))
(assert (= temp10598_133 temp10598_132))
(assert (= temp10598_134 (select ARGNAME_stride_NAMEEND_VAL temp10598_133)))
(assert (= var1191735
   (ite (and true
             (bvsle temp10598_114 temp10598_111)
             (bvsle temp10598_118 temp10598_115)
             (bvsle temp10598_122 temp10598_119)
             (bvsle temp10598_126 temp10598_123)
             (bvsle temp10598_130 temp10598_127)
             (bvsle temp10598_134 temp10598_131))
        #x0000000000000001
        #x0000000000000000)))
(assert (= temp10598_135 #x0000000000000000))
(assert (= var1191735 temp10598_135))
(assert (= var1191747
   (ite (= ARGNAME_weight_NAMEEND_DIM ARGNAME_input_NAMEEND_DIM)
        #x0000000000000001
        #x0000000000000000)))
(assert (= temp10598_136 #x0000000000000001))
(assert (= var1191747 temp10598_136))
(assert (= temp10598_137 #x0000000000000000))
(assert (= var1179826 temp10598_137))
(assert (= temp10598_138 #x0000000000000000))
(assert (= temp10598_139 temp10598_138))
(assert (= temp10598_140 (select ARGNAME_weight_NAMEEND_DIMSIZE temp10598_139)))
(assert (= temp10598_141 #x0000000000000001))
(assert (= temp10598_142 temp10598_141))
(assert (= temp10598_143 (select ARGNAME_weight_NAMEEND_DIMSIZE temp10598_142)))
(assert (= temp10598_144 #x0000000000000002))
(assert (= temp10598_145 temp10598_144))
(assert (= temp10598_146 (select ARGNAME_weight_NAMEEND_DIMSIZE temp10598_145)))
(assert (= temp10598_147 #x0000000000000003))
(assert (= temp10598_148 temp10598_147))
(assert (= temp10598_149 (select ARGNAME_weight_NAMEEND_DIMSIZE temp10598_148)))
(assert (= temp10598_150 #x0000000000000004))
(assert (= temp10598_151 temp10598_150))
(assert (= temp10598_152 (select ARGNAME_weight_NAMEEND_DIMSIZE temp10598_151)))
(assert (= temp10598_153 #x0000000000000005))
(assert (= temp10598_154 temp10598_153))
(assert (= temp10598_155 (select ARGNAME_weight_NAMEEND_DIMSIZE temp10598_154)))
(assert (= temp10598_157 var1179826))
(assert (= temp10598_158 (select ARGNAME_weight_NAMEEND_DIMSIZE temp10598_157)))
(assert (= temp10598_156 temp10598_158))
(assert (= var1191780
   (ite (bvslt temp10598_156 ARGNAME_groups_NAMEEND)
        #x0000000000000001
        #x0000000000000000)))
(assert (= temp10598_159 #x0000000000000000))
(assert (= var1191780 temp10598_159))
(assert (= temp10598_160 #x0000000000000000))
(assert (= var1179826 temp10598_160))
(assert (= temp10598_162 var1179826))
(assert (= temp10598_163 (select ARGNAME_weight_NAMEEND_DIMSIZE temp10598_162)))
(assert (= temp10598_161 temp10598_163))
(assert (= var1191802 (bvsmod temp10598_161 ARGNAME_groups_NAMEEND)))
(assert (= temp10598_164 #x0000000000000000))
(assert (= var1191803
   (ite (= var1191802 temp10598_164) #x0000000000000001 #x0000000000000000)))
(assert (= temp10598_165 #x0000000000000001))
(assert (= var1191803 temp10598_165))
(assert (= temp10598_166 #x0000000000000000))
(assert (= var1191823
   (ite (= ARGNAME_transposed_NAMEEND temp10598_166)
        #x0000000000000001
        #x0000000000000000)))
(assert (= temp10598_167 #x0000000000000001))
(assert (= var1191823 temp10598_167))
(assert (= temp10598_168 #x0000000000000001))
(assert (= var1180714 temp10598_168))
(assert (= temp10598_169 #x0000000000000000))
(assert (= temp10598_170 temp10598_169))
(assert (= temp10598_171 (select ARGNAME_input_NAMEEND_DIMSIZE temp10598_170)))
(assert (= temp10598_172 #x0000000000000001))
(assert (= temp10598_173 temp10598_172))
(assert (= temp10598_174 (select ARGNAME_input_NAMEEND_DIMSIZE temp10598_173)))
(assert (= temp10598_175 #x0000000000000002))
(assert (= temp10598_176 temp10598_175))
(assert (= temp10598_177 (select ARGNAME_input_NAMEEND_DIMSIZE temp10598_176)))
(assert (= temp10598_178 #x0000000000000003))
(assert (= temp10598_179 temp10598_178))
(assert (= temp10598_180 (select ARGNAME_input_NAMEEND_DIMSIZE temp10598_179)))
(assert (= temp10598_181 #x0000000000000004))
(assert (= temp10598_182 temp10598_181))
(assert (= temp10598_183 (select ARGNAME_input_NAMEEND_DIMSIZE temp10598_182)))
(assert (= temp10598_184 #x0000000000000005))
(assert (= temp10598_185 temp10598_184))
(assert (= temp10598_186 (select ARGNAME_input_NAMEEND_DIMSIZE temp10598_185)))
(assert (= temp10598_187 #x0000000000000000))
(assert (= temp10598_188
   (ite (bvslt var1180714 temp10598_187)
        (bvadd ARGNAME_input_NAMEEND_DIM var1180714)
        var1180714)))
(assert (= temp10598_189 (select ARGNAME_input_NAMEEND_DIMSIZE temp10598_188)))
(assert (= var1191831 temp10598_189))
(assert (bvslt (ite (bvslt var1180714 temp10598_187)
            (bvadd ARGNAME_input_NAMEEND_DIM var1180714)
            var1180714)
       ARGNAME_input_NAMEEND_DIM))
(assert (= temp10598_190 #x0000000000000001))
(assert (= var1180714 temp10598_190))
(assert (= temp10598_192 var1180714))
(assert (= temp10598_193 (select ARGNAME_weight_NAMEEND_DIMSIZE temp10598_192)))
(assert (= temp10598_191 temp10598_193))
(assert (= var1191835 (bvmul ARGNAME_groups_NAMEEND temp10598_191)))
(assert (= var1191836
   (ite (= var1191831 var1191835) #x0000000000000001 #x0000000000000000)))
(assert (= temp10598_194 #x0000000000000001))
(assert (= var1191836 temp10598_194))
(assert (= temp10598_195 #x0000000000000000))
(assert (= var1179826 temp10598_195))
(assert (= temp10598_197 var1179826))
(assert (= temp10598_198 (select ARGNAME_weight_NAMEEND_DIMSIZE temp10598_197)))
(assert (= temp10598_196 temp10598_198))
(assert (= temp10598_199 #x0000000000000002))
(assert (= var1586025 temp10598_199))
(assert (= var1586034 var1586025))
(assert (= var1717312 var1586034))
(assert (= temp10598_200 #x0000000000000001))
(assert (= var1191993 temp10598_200))
(assert (= temp10598_201 #x0000000000000001))
(assert (= var2700303 temp10598_201))
(assert (= temp10598_202 #x0000000000000001))
(assert (= var2962447 temp10598_202))
(assert (= temp10598_203 #x0000000000000003))
(assert (= var211058
   (ite (= ARGNAME_weight_NAMEEND_DIM temp10598_203)
        #x0000000000000001
        #x0000000000000000)))
(assert (= temp10598_204 #x0000000000000001))
(assert (= var211058 temp10598_204))
(assert (= temp10598_205 #x0000000000000001))
(assert (= var211188 temp10598_205))
(assert (= var3879401 var211188))
(assert (= temp10598_206 #x0000000000000000))
(assert (= var3866802 temp10598_206))
(assert (= temp10598_207 #x0000000000000000))
(assert (= temp10598_208
   (ite (bvslt var3866802 temp10598_207)
        (bvadd ARGNAME_input_NAMEEND_DIM var3866802)
        var3866802)))
(assert (= temp10598_209 (select ARGNAME_input_NAMEEND_DIMSIZE temp10598_208)))
(assert (= var3879420 temp10598_209))
(assert (bvslt (ite (bvslt var3866802 temp10598_207)
            (bvadd ARGNAME_input_NAMEEND_DIM var3866802)
            var3866802)
       ARGNAME_input_NAMEEND_DIM))
(assert (= temp10598_210 #x0000000000000000))
(assert (= var3879421
   (ite (= var3879420 temp10598_210) #x0000000000000001 #x0000000000000000)))
(assert (= temp10598_211 #x0000000000000000))
(assert (= var3879421 temp10598_211))
(assert (= temp10598_212 #x0000000000000001))
(assert (= var3867690 temp10598_212))
(assert (= temp10598_213 #x0000000000000000))
(assert (= temp10598_214
   (ite (bvslt var3867690 temp10598_213)
        (bvadd ARGNAME_input_NAMEEND_DIM var3867690)
        var3867690)))
(assert (= temp10598_215 (select ARGNAME_input_NAMEEND_DIMSIZE temp10598_214)))
(assert (= var3879423 temp10598_215))
(assert (bvslt (ite (bvslt var3867690 temp10598_213)
            (bvadd ARGNAME_input_NAMEEND_DIM var3867690)
            var3867690)
       ARGNAME_input_NAMEEND_DIM))
(assert (= temp10598_216 #x0000000000000000))
(assert (= var3879424
   (ite (= var3879423 temp10598_216) #x0000000000000001 #x0000000000000000)))
(assert (= temp10598_217 #x0000000000000001))
(assert (= var3879424 temp10598_217))
(assert (= temp10598_218 #x0000000000000000))
(assert (= var4133117 temp10598_218))
(assert (= var4133062 var4133117))
(assert (= var4079396 var4133062))
(assert (= var4079423 var4079396))
(assert (= var4079425 var4079423))
(assert (= var4079382 var4079425))
(assert (= var211201 var4079382))
(assert (= temp10598_219 #x0000000000000002))
(assert (= var4339331 temp10598_219))
(assert (= var4339333 (bvsub ARGNAME_weight_NAMEEND_DIM var4339331)))
(assert (= var4404876 var4339331))
(assert (= var4404877 var4339333))
(assert (= var4404890 (bvadd var4404877 var4404876)))
(assert (= var4404892
   (ite (bvsgt var4404890 ARGNAME_weight_NAMEEND_DIM)
        #x0000000000000001
        #x0000000000000000)))
(assert (= temp10598_220 #x0000000000000000))
(assert (= var4404892 temp10598_220))
(assert (= var4404917 var4404876))
(assert (= var4404919 var4404877))
(assert (= var4525907 var4404919))
(assert (= var4927888 var211201))
(assert (= var211494 var210913))
(assert (= temp10598_221 #x0000000000000000))
(assert (= var211495
   (ite (distinct var211494 temp10598_221)
        #x0000000000000001
        #x0000000000000000)))
(assert (= temp10598_223 #x0000000000000001))
(assert (= temp10598_222 temp10598_223))
(assert (= temp10598_224 #x0000000000000001))
(assert (= var6884842 temp10598_224))
(assert (= temp10598_226 #xffffffffffffffff))
(assert (= temp10598_225 temp10598_226))
(assert (= temp10598_227 #x0000000000000001))
(assert (= var211058 temp10598_227))
(model-add temp10598_1 () (_ BitVec 64) #x0000000000000001)
(model-add var77203 () (_ BitVec 64) #x0000000000000001)
(model-add var210653 () (_ BitVec 64) #x0000000000000001)
(model-add var210913 () (_ BitVec 64) #x0000000000000001)
(model-add temp10598_2 () (_ BitVec 64) #xfffffffffffffffe)
(model-add var210940
           ()
           (_ BitVec 64)
           (bvadd #xfffffffffffffffe ARGNAME_weight_NAMEEND_DIM))
(model-add temp10598_3 () (_ BitVec 64) #x0000000000000003)
(model-add temp10598_4 () (_ BitVec 64) #x0000000000000000)
(model-add var210941 () (_ BitVec 64) #x0000000000000000)
(model-del k!0)
(model-add ARGNAME_weight_NAMEEND_DIM
           ()
           (_ BitVec 64)
           (ite (or k!0 (= #x0000000000000003 #x8000000000000000))
                #x0000000000000003
                (bvsub #x0000000000000003 #x0000000000000001)))






